
  32    4
  10   10   10   10

   0   0   0   0   0   2 2 4 
   8   1   0   1   1   1 3 
   7   4   0   7   4   1 5 
   4   0   1   5   8   3 15 10 8 
   2   5   0   4   6   1 6 
   4   3   0   5   1   1 7 
   7   5   0   3   4   1 8 
   8   2   5   0   7   1 9 
   2   4   2   5   0   1 11 
   7   0   5   2   4   1 11 
   3   5   4   3   0   3 17 13 12 
   8   5   4   5   0   1 14 
   9   5   6   3   0   1 14 
   2   3   5   5   0   1 16 
   4   7   4   4   0   1 16 
   5   1   0   5   4   1 18 
   8   0   4   4   4   1 18 
  10   8   9   0   5   1 19 
   3   0   4   5   3   1 20 
   7   4   1   0   3   1 21 
  10   2   4   7   0   1 22 
   6   4   0   2   4   1 23 
   4   4   0   2   6   1 24 
   4   5   4   4   0   1 25 
  10   5   4   3   0   1 26 
   7   5   2   4   0   1 27 
   4   2   4   4   0   2 31 28 
   8   4   3   5   0   1 29 
   9   0   2   3   1   1 30 
  10   5   0   4   4   1 32
   7   2   7   0   3   1 32
   0   0   0   0   0   0 
